K = 3;
V = 20;
edge_weight = [|0, -1, 82, 81, -1, 56, -1, -1, 23, 17, -1, -1, -1, 92, 88, -1, -1, -1, -1, -1|
-1, 0, -1, -1, -1, -1, 20, 76, -1, -1, 21, -1, -1, -1, -1, -1, -1, -1, -1, 66|
-1, -1, 0, -1, -1, 29, 37, -1, -1, -1, -1, -1, -1, -1, -1, -1, -1, 17, -1, 60|
-1, -1, -1, 0, -1, 86, -1, -1, 97, 9, 36, -1, 66, 71, -1, -1, -1, 63, -1, -1|
-1, -1, -1, -1, 0, 43, 79, -1, -1, -1, -1, 51, -1, 72, -1, 94, -1, 86, -1, -1|
-1, -1, -1, -1, -1, 0, -1, -1, -1, -1, 96, -1, -1, -1, -1, 23, -1, -1, -1, -1|
-1, -1, -1, 48, -1, -1, 0, 38, -1, 80, -1, -1, -1, -1, -1, -1, -1, -1, -1, -1|
62, -1, -1, -1, -1, -1, 64, 0, -1, -1, -1, 84, 73, 83, 18, -1, 37, 18, 17, -1|
-1, 10, 86, 73, -1, 93, 55, -1, 0, 17, -1, -1, -1, -1, -1, 80, 77, -1, -1, -1|
-1, -1, -1, -1, -1, -1, -1, -1, -1, 0, -1, -1, 49, -1, -1, 96, -1, 59, 44, -1|
84, -1, -1, -1, -1, 15, -1, 21, 12, -1, 0, 2, -1, 56, -1, -1, 88, -1, 35, -1|
-1, 82, -1, -1, -1, -1, -1, -1, -1, -1, -1, 0, 46, 92, -1, -1, -1, -1, 97, -1|
-1, 7, -1, 80, 88, -1, 40, -1, 92, -1, -1, -1, 0, 61, -1, -1, 47, 14, -1, -1|
67, 24, -1, -1, 32, -1, 62, 69, -1, 78, -1, 22, -1, 0, -1, 9, -1, 73, -1, 51|
-1, 64, -1, 27, -1, 26, 82, 89, 10, -1, 23, -1, -1, -1, 0, -1, 88, -1, 87, -1|
61, -1, -1, -1, 56, -1, -1, -1, -1, -1, -1, -1, -1, -1, 70, 0, -1, -1, 67, 64|
-1, 52, -1, -1, -1, -1, 48, -1, 61, -1, -1, -1, -1, -1, -1, -1, 0, -1, -1, 100|
-1, 20, 13, 72, 3, 65, -1, -1, -1, 49, -1, 90, -1, -1, 69, -1, -1, 0, -1, -1|
71, -1, 13, 69, -1, 33, -1, -1, -1, -1, 38, -1, -1, -1, 10, -1, 50, -1, 0, -1|
-1, -1, -1, -1, -1, -1, -1, -1, -1, 100, -1, -1, 44, -1, 48, -1, -1, -1, -1, 0|];
